p cnf 64 1576
1 9 17 25 33 41 49 57 0
2 10 18 26 34 42 50 58 0
3 11 19 27 35 43 51 59 0
4 12 20 28 36 44 52 60 0
5 13 21 29 37 45 53 61 0
6 14 22 30 38 46 54 62 0
7 15 23 31 39 47 55 63 0
8 16 24 32 40 48 56 64 0
-1 -26 0
-1 -27 0
-1 -28 0
-1 -29 0
-1 -30 0
-1 -31 0
-1 -32 0
-2 -25 0
-2 -27 0
-2 -28 0
-2 -29 0
-2 -30 0
-2 -31 0
-2 -32 0
-3 -25 0
-3 -26 0
-3 -28 0
-3 -29 0
-3 -30 0
-3 -31 0
-3 -32 0
-4 -25 0
-4 -26 0
-4 -27 0
-4 -29 0
-4 -30 0
-4 -31 0
-4 -32 0
-5 -25 0
-5 -26 0
-5 -27 0
-5 -28 0
-5 -30 0
-5 -31 0
-5 -32 0
-6 -25 0
-6 -26 0
-6 -27 0
-6 -28 0
-6 -29 0
-6 -31 0
-6 -32 0
-7 -25 0
-7 -26 0
-7 -27 0
-7 -28 0
-7 -29 0
-7 -30 0
-7 -32 0
-8 -25 0
-8 -26 0
-8 -27 0
-8 -28 0
-8 -29 0
-8 -30 0
-8 -31 0
-1 -50 0
-1 -51 0
-1 -52 0
-1 -53 0
-1 -54 0
-1 -55 0
-1 -56 0
-2 -49 0
-2 -51 0
-2 -52 0
-2 -53 0
-2 -54 0
-2 -55 0
-2 -56 0
-3 -49 0
-3 -50 0
-3 -52 0
-3 -53 0
-3 -54 0
-3 -55 0
-3 -56 0
-4 -49 0
-4 -50 0
-4 -51 0
-4 -53 0
-4 -54 0
-4 -55 0
-4 -56 0
-5 -49 0
-5 -50 0
-5 -51 0
-5 -52 0
-5 -54 0
-5 -55 0
-5 -56 0
-6 -49 0
-6 -50 0
-6 -51 0
-6 -52 0
-6 -53 0
-6 -55 0
-6 -56 0
-7 -49 0
-7 -50 0
-7 -51 0
-7 -52 0
-7 -53 0
-7 -54 0
-7 -56 0
-8 -49 0
-8 -50 0
-8 -51 0
-8 -52 0
-8 -53 0
-8 -54 0
-8 -55 0
-9 -18 0
-9 -19 0
-9 -20 0
-9 -21 0
-9 -22 0
-9 -23 0
-9 -24 0
-10 -17 0
-10 -19 0
-10 -20 0
-10 -21 0
-10 -22 0
-10 -23 0
-10 -24 0
-11 -17 0
-11 -18 0
-11 -20 0
-11 -21 0
-11 -22 0
-11 -23 0
-11 -24 0
-12 -17 0
-12 -18 0
-12 -19 0
-12 -21 0
-12 -22 0
-12 -23 0
-12 -24 0
-13 -17 0
-13 -18 0
-13 -19 0
-13 -20 0
-13 -22 0
-13 -23 0
-13 -24 0
-14 -17 0
-14 -18 0
-14 -19 0
-14 -20 0
-14 -21 0
-14 -23 0
-14 -24 0
-15 -17 0
-15 -18 0
-15 -19 0
-15 -20 0
-15 -21 0
-15 -22 0
-15 -24 0
-16 -17 0
-16 -18 0
-16 -19 0
-16 -20 0
-16 -21 0
-16 -22 0
-16 -23 0
-9 -50 0
-9 -51 0
-9 -52 0
-9 -53 0
-9 -54 0
-9 -55 0
-9 -56 0
-10 -49 0
-10 -51 0
-10 -52 0
-10 -53 0
-10 -54 0
-10 -55 0
-10 -56 0
-11 -49 0
-11 -50 0
-11 -52 0
-11 -53 0
-11 -54 0
-11 -55 0
-11 -56 0
-12 -49 0
-12 -50 0
-12 -51 0
-12 -53 0
-12 -54 0
-12 -55 0
-12 -56 0
-13 -49 0
-13 -50 0
-13 -51 0
-13 -52 0
-13 -54 0
-13 -55 0
-13 -56 0
-14 -49 0
-14 -50 0
-14 -51 0
-14 -52 0
-14 -53 0
-14 -55 0
-14 -56 0
-15 -49 0
-15 -50 0
-15 -51 0
-15 -52 0
-15 -53 0
-15 -54 0
-15 -56 0
-16 -49 0
-16 -50 0
-16 -51 0
-16 -52 0
-16 -53 0
-16 -54 0
-16 -55 0
-9 -58 0
-9 -59 0
-9 -60 0
-9 -61 0
-9 -62 0
-9 -63 0
-9 -64 0
-10 -57 0
-10 -59 0
-10 -60 0
-10 -61 0
-10 -62 0
-10 -63 0
-10 -64 0
-11 -57 0
-11 -58 0
-11 -60 0
-11 -61 0
-11 -62 0
-11 -63 0
-11 -64 0
-12 -57 0
-12 -58 0
-12 -59 0
-12 -61 0
-12 -62 0
-12 -63 0
-12 -64 0
-13 -57 0
-13 -58 0
-13 -59 0
-13 -60 0
-13 -62 0
-13 -63 0
-13 -64 0
-14 -57 0
-14 -58 0
-14 -59 0
-14 -60 0
-14 -61 0
-14 -63 0
-14 -64 0
-15 -57 0
-15 -58 0
-15 -59 0
-15 -60 0
-15 -61 0
-15 -62 0
-15 -64 0
-16 -57 0
-16 -58 0
-16 -59 0
-16 -60 0
-16 -61 0
-16 -62 0
-16 -63 0
-17 -50 0
-17 -51 0
-17 -52 0
-17 -53 0
-17 -54 0
-17 -55 0
-17 -56 0
-18 -49 0
-18 -51 0
-18 -52 0
-18 -53 0
-18 -54 0
-18 -55 0
-18 -56 0
-19 -49 0
-19 -50 0
-19 -52 0
-19 -53 0
-19 -54 0
-19 -55 0
-19 -56 0
-20 -49 0
-20 -50 0
-20 -51 0
-20 -53 0
-20 -54 0
-20 -55 0
-20 -56 0
-21 -49 0
-21 -50 0
-21 -51 0
-21 -52 0
-21 -54 0
-21 -55 0
-21 -56 0
-22 -49 0
-22 -50 0
-22 -51 0
-22 -52 0
-22 -53 0
-22 -55 0
-22 -56 0
-23 -49 0
-23 -50 0
-23 -51 0
-23 -52 0
-23 -53 0
-23 -54 0
-23 -56 0
-24 -49 0
-24 -50 0
-24 -51 0
-24 -52 0
-24 -53 0
-24 -54 0
-24 -55 0
-25 -42 0
-25 -43 0
-25 -44 0
-25 -45 0
-25 -46 0
-25 -47 0
-25 -48 0
-26 -41 0
-26 -43 0
-26 -44 0
-26 -45 0
-26 -46 0
-26 -47 0
-26 -48 0
-27 -41 0
-27 -42 0
-27 -44 0
-27 -45 0
-27 -46 0
-27 -47 0
-27 -48 0
-28 -41 0
-28 -42 0
-28 -43 0
-28 -45 0
-28 -46 0
-28 -47 0
-28 -48 0
-29 -41 0
-29 -42 0
-29 -43 0
-29 -44 0
-29 -46 0
-29 -47 0
-29 -48 0
-30 -41 0
-30 -42 0
-30 -43 0
-30 -44 0
-30 -45 0
-30 -47 0
-30 -48 0
-31 -41 0
-31 -42 0
-31 -43 0
-31 -44 0
-31 -45 0
-31 -46 0
-31 -48 0
-32 -41 0
-32 -42 0
-32 -43 0
-32 -44 0
-32 -45 0
-32 -46 0
-32 -47 0
-33 -50 0
-33 -51 0
-33 -52 0
-33 -53 0
-33 -54 0
-33 -55 0
-33 -56 0
-34 -49 0
-34 -51 0
-34 -52 0
-34 -53 0
-34 -54 0
-34 -55 0
-34 -56 0
-35 -49 0
-35 -50 0
-35 -52 0
-35 -53 0
-35 -54 0
-35 -55 0
-35 -56 0
-36 -49 0
-36 -50 0
-36 -51 0
-36 -53 0
-36 -54 0
-36 -55 0
-36 -56 0
-37 -49 0
-37 -50 0
-37 -51 0
-37 -52 0
-37 -54 0
-37 -55 0
-37 -56 0
-38 -49 0
-38 -50 0
-38 -51 0
-38 -52 0
-38 -53 0
-38 -55 0
-38 -56 0
-39 -49 0
-39 -50 0
-39 -51 0
-39 -52 0
-39 -53 0
-39 -54 0
-39 -56 0
-40 -49 0
-40 -50 0
-40 -51 0
-40 -52 0
-40 -53 0
-40 -54 0
-40 -55 0
-1 -2 0
-1 -3 0
-1 -4 0
-1 -5 0
-1 -6 0
-1 -7 0
-1 -8 0
-2 -3 0
-2 -4 0
-2 -5 0
-2 -6 0
-2 -7 0
-2 -8 0
-3 -4 0
-3 -5 0
-3 -6 0
-3 -7 0
-3 -8 0
-4 -5 0
-4 -6 0
-4 -7 0
-4 -8 0
-5 -6 0
-5 -7 0
-5 -8 0
-6 -7 0
-6 -8 0
-7 -8 0
-9 -10 0
-9 -11 0
-9 -12 0
-9 -13 0
-9 -14 0
-9 -15 0
-9 -16 0
-10 -11 0
-10 -12 0
-10 -13 0
-10 -14 0
-10 -15 0
-10 -16 0
-11 -12 0
-11 -13 0
-11 -14 0
-11 -15 0
-11 -16 0
-12 -13 0
-12 -14 0
-12 -15 0
-12 -16 0
-13 -14 0
-13 -15 0
-13 -16 0
-14 -15 0
-14 -16 0
-15 -16 0
-17 -18 0
-17 -19 0
-17 -20 0
-17 -21 0
-17 -22 0
-17 -23 0
-17 -24 0
-18 -19 0
-18 -20 0
-18 -21 0
-18 -22 0
-18 -23 0
-18 -24 0
-19 -20 0
-19 -21 0
-19 -22 0
-19 -23 0
-19 -24 0
-20 -21 0
-20 -22 0
-20 -23 0
-20 -24 0
-21 -22 0
-21 -23 0
-21 -24 0
-22 -23 0
-22 -24 0
-23 -24 0
-25 -26 0
-25 -27 0
-25 -28 0
-25 -29 0
-25 -30 0
-25 -31 0
-25 -32 0
-26 -27 0
-26 -28 0
-26 -29 0
-26 -30 0
-26 -31 0
-26 -32 0
-27 -28 0
-27 -29 0
-27 -30 0
-27 -31 0
-27 -32 0
-28 -29 0
-28 -30 0
-28 -31 0
-28 -32 0
-29 -30 0
-29 -31 0
-29 -32 0
-30 -31 0
-30 -32 0
-31 -32 0
-33 -34 0
-33 -35 0
-33 -36 0
-33 -37 0
-33 -38 0
-33 -39 0
-33 -40 0
-34 -35 0
-34 -36 0
-34 -37 0
-34 -38 0
-34 -39 0
-34 -40 0
-35 -36 0
-35 -37 0
-35 -38 0
-35 -39 0
-35 -40 0
-36 -37 0
-36 -38 0
-36 -39 0
-36 -40 0
-37 -38 0
-37 -39 0
-37 -40 0
-38 -39 0
-38 -40 0
-39 -40 0
-41 -42 0
-41 -43 0
-41 -44 0
-41 -45 0
-41 -46 0
-41 -47 0
-41 -48 0
-42 -43 0
-42 -44 0
-42 -45 0
-42 -46 0
-42 -47 0
-42 -48 0
-43 -44 0
-43 -45 0
-43 -46 0
-43 -47 0
-43 -48 0
-44 -45 0
-44 -46 0
-44 -47 0
-44 -48 0
-45 -46 0
-45 -47 0
-45 -48 0
-46 -47 0
-46 -48 0
-47 -48 0
-49 -50 0
-49 -51 0
-49 -52 0
-49 -53 0
-49 -54 0
-49 -55 0
-49 -56 0
-50 -51 0
-50 -52 0
-50 -53 0
-50 -54 0
-50 -55 0
-50 -56 0
-51 -52 0
-51 -53 0
-51 -54 0
-51 -55 0
-51 -56 0
-52 -53 0
-52 -54 0
-52 -55 0
-52 -56 0
-53 -54 0
-53 -55 0
-53 -56 0
-54 -55 0
-54 -56 0
-55 -56 0
-57 -58 0
-57 -59 0
-57 -60 0
-57 -61 0
-57 -62 0
-57 -63 0
-57 -64 0
-58 -59 0
-58 -60 0
-58 -61 0
-58 -62 0
-58 -63 0
-58 -64 0
-59 -60 0
-59 -61 0
-59 -62 0
-59 -63 0
-59 -64 0
-60 -61 0
-60 -62 0
-60 -63 0
-60 -64 0
-61 -62 0
-61 -63 0
-61 -64 0
-62 -63 0
-62 -64 0
-63 -64 0
-1 -9  0
-1 -17  0
-1 -25  0
-1 -33  0
-1 -41  0
-1 -49  0
-1 -57  0
-2 -10  0
-2 -18  0
-2 -26  0
-2 -34  0
-2 -42  0
-2 -50  0
-2 -58  0
-3 -11  0
-3 -19  0
-3 -27  0
-3 -35  0
-3 -43  0
-3 -51  0
-3 -59  0
-4 -12  0
-4 -20  0
-4 -28  0
-4 -36  0
-4 -44  0
-4 -52  0
-4 -60  0
-5 -13  0
-5 -21  0
-5 -29  0
-5 -37  0
-5 -45  0
-5 -53  0
-5 -61  0
-6 -14  0
-6 -22  0
-6 -30  0
-6 -38  0
-6 -46  0
-6 -54  0
-6 -62  0
-7 -15  0
-7 -23  0
-7 -31  0
-7 -39  0
-7 -47  0
-7 -55  0
-7 -63  0
-8 -16  0
-8 -24  0
-8 -32  0
-8 -40  0
-8 -48  0
-8 -56  0
-8 -64  0
-9 -17  0
-9 -25  0
-9 -33  0
-9 -41  0
-9 -49  0
-9 -57  0
-10 -18  0
-10 -26  0
-10 -34  0
-10 -42  0
-10 -50  0
-10 -58  0
-11 -19  0
-11 -27  0
-11 -35  0
-11 -43  0
-11 -51  0
-11 -59  0
-12 -20  0
-12 -28  0
-12 -36  0
-12 -44  0
-12 -52  0
-12 -60  0
-13 -21  0
-13 -29  0
-13 -37  0
-13 -45  0
-13 -53  0
-13 -61  0
-14 -22  0
-14 -30  0
-14 -38  0
-14 -46  0
-14 -54  0
-14 -62  0
-15 -23  0
-15 -31  0
-15 -39  0
-15 -47  0
-15 -55  0
-15 -63  0
-16 -24  0
-16 -32  0
-16 -40  0
-16 -48  0
-16 -56  0
-16 -64  0
-17 -25  0
-17 -33  0
-17 -41  0
-17 -49  0
-17 -57  0
-18 -26  0
-18 -34  0
-18 -42  0
-18 -50  0
-18 -58  0
-19 -27  0
-19 -35  0
-19 -43  0
-19 -51  0
-19 -59  0
-20 -28  0
-20 -36  0
-20 -44  0
-20 -52  0
-20 -60  0
-21 -29  0
-21 -37  0
-21 -45  0
-21 -53  0
-21 -61  0
-22 -30  0
-22 -38  0
-22 -46  0
-22 -54  0
-22 -62  0
-23 -31  0
-23 -39  0
-23 -47  0
-23 -55  0
-23 -63  0
-24 -32  0
-24 -40  0
-24 -48  0
-24 -56  0
-24 -64  0
-25 -33  0
-25 -41  0
-25 -49  0
-25 -57  0
-26 -34  0
-26 -42  0
-26 -50  0
-26 -58  0
-27 -35  0
-27 -43  0
-27 -51  0
-27 -59  0
-28 -36  0
-28 -44  0
-28 -52  0
-28 -60  0
-29 -37  0
-29 -45  0
-29 -53  0
-29 -61  0
-30 -38  0
-30 -46  0
-30 -54  0
-30 -62  0
-31 -39  0
-31 -47  0
-31 -55  0
-31 -63  0
-32 -40  0
-32 -48  0
-32 -56  0
-32 -64  0
-33 -41  0
-33 -49  0
-33 -57  0
-34 -42  0
-34 -50  0
-34 -58  0
-35 -43  0
-35 -51  0
-35 -59  0
-36 -44  0
-36 -52  0
-36 -60  0
-37 -45  0
-37 -53  0
-37 -61  0
-38 -46  0
-38 -54  0
-38 -62  0
-39 -47  0
-39 -55  0
-39 -63  0
-40 -48  0
-40 -56  0
-40 -64  0
-41 -49  0
-41 -57  0
-42 -50  0
-42 -58  0
-43 -51  0
-43 -59  0
-44 -52  0
-44 -60  0
-45 -53  0
-45 -61  0
-46 -54  0
-46 -62  0
-47 -55  0
-47 -63  0
-48 -56  0
-48 -64  0
-49 -57  0
-50 -58  0
-51 -59  0
-52 -60  0
-53 -61  0
-54 -62  0
-55 -63  0
-56 -64  0
